0 0 0 0
0 1 0 0
0 2 2 0
0 3 1 0
0 4 0 3
0 5 1 5
0 6 2 6
0 7 0 7
0 8 1 9
0 9 0 12
0 10 1 3
0 11 0 6
0 12 1 6
0 13 2 3
0 14 1 16
0 15 0 15
0 16 2 12
0 17 0 20
0 18 1 22
0 19 0 20
0 20 0 16
0 21 0 22
0 22 0 24
0 23 0 20
0 24 0 32
0 25 2 24
0 26 0 34
0 27 0 36
0 28 1 32
0 29 0 43
0 30 2 27
0 31 0 45
